% seed = 2300165

mint = 40;
% maxt = 100;

nActs = 22;
dur = [0,9,3,8,4,8,2,3,2,3,10,1,7,1,2,1,3,10,5,10,8,0];

nSkills = 4;
sreq = [| 0,0,0,0,
	| 1,3,1,0,
	| 1,1,0,1,
	| 3,1,0,2,
	| 3,0,2,2,
	| 3,2,1,0,
	| 2,2,0,3,
	| 1,3,0,1,
	| 0,2,2,1,
	| 0,3,2,2,
	| 1,1,0,3,
	| 2,3,0,3,
	| 0,2,2,2,
	| 0,1,2,2,
	| 2,0,2,3,
	| 0,1,3,1,
	| 0,3,3,3,
	| 0,2,1,3,
	| 0,1,2,3,
	| 3,0,3,1,
	| 2,0,2,1,
	| 0,0,0,0, |];

nResources = 25;
mastery = [| false,true,true,false,
	| false,true,false,true,
	| false,true,true,false,
	| true,false,false,false,
	| false,false,false,true,
	| true,false,true,true,
	| false,true,false,false,
	| false,true,true,false,
	| true,true,false,true,
	| false,false,true,false,
	| true,false,true,false,
	| false,false,true,true,
	| true,true,true,false,
	| false,true,false,false,
	| true,true,true,false,
	| true,true,true,false,
	| true,false,false,true,
	| false,true,false,false,
	| false,true,true,false,
	| true,true,false,true,
	| true,false,false,true,
	| true,false,true,false,
	| false,true,true,true,
	| false,false,true,false,
	| false,false,true,false, |];

nPrecs = 31;
pred = [1,1,1,2,2,2,3,4,5,5,6,6,7,8,9,9,10,11,11,12,13,14,15,16,17,17,18,18,19,20,21];
succ = [2,3,4,5,7,8,6,11,9,17,14,7,12,13,10,21,12,19,13,16,20,15,16,18,19,20,20,21,22,22,22];

nUnrels = 105;
unpred = [2,2,2,2,2,2,3,3,3,3,3,3,3,3,3,4,4,4,4,4,4,4,4,4,4,4,4,4,5,5,5,5,5,5,5,6,6,6,6,6,6,6,7,7,7,7,7,7,7,7,7,8,8,8,8,8,8,8,8,8,8,8,9,9,9,9,9,9,10,10,10,10,10,10,11,11,11,11,11,11,11,12,12,12,12,12,13,13,13,13,13,13,13,14,14,15,15,16,16,17,17,18,19,19,20];
unsucc = [3,4,6,11,14,15,4,5,8,9,10,11,13,17,19,5,6,7,8,9,10,12,14,15,16,17,18,21,6,7,8,11,13,14,15,8,9,10,11,13,17,19,8,9,10,11,13,14,15,17,19,9,10,11,12,14,15,16,17,18,19,21,11,13,14,15,17,19,11,13,14,15,17,19,12,14,15,16,17,18,21,13,14,15,17,19,14,15,16,17,18,19,21,17,19,17,19,17,19,18,21,19,20,21,21];

USEFUL_RES = [{},
	{1,2,3,4,6,7,8,9,10,11,12,13,14,15,16,17,18,19,20,21,22,23,24,25},
	{1,2,3,4,5,6,7,8,9,11,12,13,14,15,16,17,18,19,20,21,22,23},
	{1,2,3,4,5,6,7,8,9,11,12,13,14,15,16,17,18,19,20,21,22,23},
	{1,2,3,4,5,6,8,9,10,11,12,13,15,16,17,19,20,21,22,23,24,25},
	{1,2,3,4,6,7,8,9,10,11,12,13,14,15,16,17,18,19,20,21,22,23,24,25},
	{1,2,3,4,5,6,7,8,9,11,12,13,14,15,16,17,18,19,20,21,22,23},
	{1,2,3,4,5,6,7,8,9,11,12,13,14,15,16,17,18,19,20,21,22,23},
	{1,2,3,5,6,7,8,9,10,11,12,13,14,15,16,17,18,19,20,21,22,23,24,25},
	{1,2,3,5,6,7,8,9,10,11,12,13,14,15,16,17,18,19,20,21,22,23,24,25},
	{1,2,3,4,5,6,7,8,9,11,12,13,14,15,16,17,18,19,20,21,22,23},
	{1,2,3,4,5,6,7,8,9,11,12,13,14,15,16,17,18,19,20,21,22,23},
	{1,2,3,5,6,7,8,9,10,11,12,13,14,15,16,17,18,19,20,21,22,23,24,25},
	{1,2,3,5,6,7,8,9,10,11,12,13,14,15,16,17,18,19,20,21,22,23,24,25},
	{1,2,3,4,5,6,8,9,10,11,12,13,15,16,17,19,20,21,22,23,24,25},
	{1,2,3,5,6,7,8,9,10,11,12,13,14,15,16,17,18,19,20,21,22,23,24,25},
	{1,2,3,5,6,7,8,9,10,11,12,13,14,15,16,17,18,19,20,21,22,23,24,25},
	{1,2,3,5,6,7,8,9,10,11,12,13,14,15,16,17,18,19,20,21,22,23,24,25},
	{1,2,3,5,6,7,8,9,10,11,12,13,14,15,16,17,18,19,20,21,22,23,24,25},
	{1,2,3,4,5,6,8,9,10,11,12,13,15,16,17,19,20,21,22,23,24,25},
	{1,2,3,4,5,6,8,9,10,11,12,13,15,16,17,19,20,21,22,23,24,25},
	{}];

POTENTIAL_ACT = [{2,3,4,5,6,7,8,9,10,11,12,13,14,15,16,17,18,19,20,21},
	{2,3,4,5,6,7,8,9,10,11,12,13,14,15,16,17,18,19,20,21},
	{2,3,4,5,6,7,8,9,10,11,12,13,14,15,16,17,18,19,20,21},
	{2,3,4,5,6,7,8,11,12,15,20,21},
	{3,4,5,7,8,9,10,11,12,13,14,15,16,17,18,19,20,21},
	{2,3,4,5,6,7,8,9,10,11,12,13,14,15,16,17,18,19,20,21},
	{2,3,4,6,7,8,9,10,11,12,13,14,16,17,18,19},
	{2,3,4,5,6,7,8,9,10,11,12,13,14,15,16,17,18,19,20,21},
	{2,3,4,5,6,7,8,9,10,11,12,13,14,15,16,17,18,19,20,21},
	{2,5,6,9,10,13,14,15,16,17,18,19,20,21},
	{2,3,4,5,6,7,8,9,10,11,12,13,14,15,16,17,18,19,20,21},
	{2,3,4,5,6,7,8,9,10,11,12,13,14,15,16,17,18,19,20,21},
	{2,3,4,5,6,7,8,9,10,11,12,13,14,15,16,17,18,19,20,21},
	{2,3,4,6,7,8,9,10,11,12,13,14,16,17,18,19},
	{2,3,4,5,6,7,8,9,10,11,12,13,14,15,16,17,18,19,20,21},
	{2,3,4,5,6,7,8,9,10,11,12,13,14,15,16,17,18,19,20,21},
	{2,3,4,5,6,7,8,9,10,11,12,13,14,15,16,17,18,19,20,21},
	{2,3,4,6,7,8,9,10,11,12,13,14,16,17,18,19},
	{2,3,4,5,6,7,8,9,10,11,12,13,14,15,16,17,18,19,20,21},
	{2,3,4,5,6,7,8,9,10,11,12,13,14,15,16,17,18,19,20,21},
	{2,3,4,5,6,7,8,9,10,11,12,13,14,15,16,17,18,19,20,21},
	{2,3,4,5,6,7,8,9,10,11,12,13,14,15,16,17,18,19,20,21},
	{2,3,4,5,6,7,8,9,10,11,12,13,14,15,16,17,18,19,20,21},
	{2,5,6,9,10,13,14,15,16,17,18,19,20,21},
	{2,5,6,9,10,13,14,15,16,17,18,19,20,21}];
